33 33 -34
33 34 53
34 8 94
34 34 -40
39 17 66
39 42 64
39 44 76
39 39 -179
40 40 -8
40 47 21
41 17 44
41 41 -11
42 42 -6
44 8 61
44 44 -13
13 17 45
13 13 -21
13 47 42
47 47 -59
17 17 -37
8 8 -112
8 30 94
30 30 -65
